c --- [ banner ] -------------------------------------------------------------
c 
c CaDiCaL Radically Simplified CDCL SAT Solver
c Copyright (c) 2016-2021 A. Biere, M. Fleury, N. Froleyks
c 
c Version 1.5.2 a5f15211db36c3956764e18194dd5bd63bf3b5e6
c g++ (GCC) 9.3.0 -Wall -Wextra -O3 -DNDEBUG
c Fri Oct 21 01:27:37 EDT 2022 Linux gra-login3 3.10.0-1160.66.1.el7.x86_64 x86_64
c 
c --- [ limit ] --------------------------------------------------------------
c 
c setting conflict limit to 200000 conflicts (due to '200000')
c 
c --- [ parsing input ] ------------------------------------------------------
c 
c reading DIMACS file from '33.cubes1677.adj'
c opening file to read '33.cubes1677.adj'
c found 'p cnf 6160 1595477' header
c parsed 1595477 clauses in 19.62 seconds process time
c closing file '33.cubes1677.adj'
c after reading 1457566790 bytes 1390.0 MB
c 
c --- [ options ] ------------------------------------------------------------
c 
c all options are set to their default value
c 
c --- [ solving ] ------------------------------------------------------------
c 
c time measured in process time since initialization
c 
c  seconds    reductions  redundant   irredundant
c          MB     restarts       trail       variables
c            level   conflicts       glue         remaining
c 
c * 19.62 1368  0 0   0    0    0  0% 0 1595422 2385 39%
c { 20.94 1426  0 0   0    0    0  0% 0 1595422 2385 39%
c i 21.37 1439 734 0   0   15   14 30% 1 1595422 2379 39%
c i 25.10 1507 192 0  10  104   60 24% 25 1595422 2372 39%
c i 25.52 1511 190 0  11  109   64 24% 28 1595422 2352 38%
c i 25.63 1512 187 0  12  113   67 24% 27 1595422 2341 38%
c i 26.04 1513 186 0  13  116   69 24% 28 1595422 2337 38%
c i 26.09 1513 184 0  14  117   69 24% 28 1595422 2334 38%
c i 27.38 1516 155 0  24  157  101 24% 26 1595422 2333 38%
c i 27.39 1516 154 0  24  158  101 24% 26 1595422 2332 38%
c i 28.23 1522 132 0  34  214  145 24% 29 1595422 2330 38%
c i 28.25 1522 132 0  34  215  145 24% 29 1595422 2329 38%
c i 28.54 1522 128 0  36  237  165 25% 29 1595422 2328 38%
c i 28.54 1522 127 0  36  240  167 25% 29 1595422 2327 38%
c i 28.54 1522 127 0  36  241  167 25% 29 1595422 2326 38%
c i 28.70 1522 127 0  39  260  183 25% 30 1595422 2324 38%
c i 28.93 1522 126 0  42  268  190 25% 30 1595422 2323 38%
c i 28.95 1522 126 0  43  274  195 25% 30 1595422 2322 38%
c - 34.00 1465 124 1  51  302  221 25% 33 333525 2322 38%
c i 34.34 1465 120 1  55  319  236 25% 32 333525 2321 38%
c 
c  seconds     reductions  redundant   irredundant
c          MB      restarts       trail       variables
c             level   conflicts       glue         remaining
c 
c i 34.40 1465 118 1  55  326  242 26% 32 333525 2320 38%
c i 34.62 1465 109 1  57  411  314 26% 32 333525 2319 38%
c i 34.63 1465 108 1  57  413  315 26% 32 333525 2318 38%
c i 34.63 1465 108 1  57  414  315 26% 32 333525 2317 38%
c i 34.89 1465 94 1  57  510  383 27% 29 333525 2316 38%
c i 34.94 1465 93 1  57  525  396 27% 29 333525 2315 38%
c i 35.02 1465 86 1  58  597  456 27% 29 333525 2314 38%
c i 35.03 1465 85 1  58  615  460 27% 29 333525 2313 38%
c i 35.03 1465 84 1  58  620  462 27% 29 333525 2312 38%
c i 35.03 1465 84 1  58  628  469 28% 29 333525 2311 38%
c i 35.04 1465 83 1  58  636  476 28% 29 333525 2310 38%
c i 35.05 1465 80 1  58  671  499 28% 28 333525 2309 37%
c i 35.05 1465 79 1  58  688  507 28% 28 333525 2308 37%
c i 35.07 1465 77 1  58  707  511 28% 28 333525 2307 37%
c i 35.24 1465 77 1  58  754  544 28% 27 333525 2306 37%
c i 35.29 1465 78 1  58  766  555 28% 27 333525 2305 37%
c i 35.30 1465 78 1  58  770  558 28% 27 333525 2304 37%
c i 35.30 1465 78 1  58  773  559 28% 27 333525 2302 37%
c i 35.31 1465 78 1  59  778  563 28% 28 333525 2301 37%
c i 35.34 1465 78 1  61  785  564 28% 28 333525 2300 37%
c 
c  seconds    reductions  redundant   irredundant
c          MB     restarts       trail       variables
c            level   conflicts       glue         remaining
c 
c i 35.35 1465 78 1  63  792  569 28% 28 333525 2299 37%
c i 35.37 1465 78 1  64  797  572 28% 28 333525 2298 37%
c i 36.21 1466 80 1  75  854  619 28% 29 333525 2297 37%
c i 36.70 1466 80 1  83  881  642 28% 29 333525 2296 37%
c } 37.29 1466 73 1  85 1000  679 27% 27 333525 2296 37%
c [ 37.29 1466  0 1  85 1000  679  0% 0 333525 2296 37%
c O 37.31 1466 52 1  85 1002  680 20% 23 333525 2296 37%
c i 37.31 1466 52 1  85 1002  680 20% 23 333525 2286 37%
c - 38.47 1494 21 2  85 1217  739 31% 18 332648 2286 37%
c i 38.56 1494 21 2  85 1220  741 31% 18 332648 2285 37%
c i 38.90 1494 26 2  85 1397  889 30% 20 332648 2284 37%
c i 38.99 1494 26 2  85 1534  973 30% 21 332648 2283 37%
c i 39.00 1494 26 2  85 1542  980 30% 21 332648 2282 37%
c i 39.16 1494 25 2  85 1808 1159 30% 21 332648 2281 37%
c i 39.19 1494 24 2  85 1856 1193 30% 21 332648 2280 37%
c i 39.22 1494 24 2  85 1933 1249 30% 21 332648 2279 37%
c i 39.24 1494 24 2  85 1957 1264 30% 21 332648 2278 37%
c - 39.94 1493 24 3  86 2587 1312 30% 21 332625 2278 37%
c ] 40.56 1493 24 3  86 3005 1620 49% 21 332625 2278 37%
c { 40.56 1493 73 3  86 3005 1620 72% 27 332625 2278 37%
c 
c  seconds    reductions  redundant   irredundant
c          MB     restarts       trail       variables
c            level   conflicts       glue         remaining
c 
c F 40.59 1493 73 3  86 3006 1621 72% 27 332625 2278 37%
c i 41.19 1493 67 3  86 3134 1715 69% 25 332625 2277 37%
c i 41.19 1493 66 3  86 3139 1719 69% 25 332625 2276 37%
c i 41.38 1493 60 3  86 3312 1852 66% 24 332625 2275 37%
c i 41.40 1493 60 3  86 3328 1860 65% 23 332625 2270 37%
c i 41.44 1493 59 3  86 3341 1869 65% 23 332625 2269 37%
c i 43.45 1493 58 3 129 3616 2066 60% 24 332625 2266 37%
c i 43.45 1493 58 3 129 3618 2067 60% 24 332625 2265 37%
c i 43.56 1493 58 3 132 3636 2084 60% 24 332625 2264 37%
c i 44.25 1493 58 3 145 3688 2129 60% 24 332625 2263 37%
c i 44.34 1493 59 3 147 3701 2141 59% 25 332625 2262 37%
c i 44.38 1493 59 3 148 3705 2142 59% 25 332625 2261 37%
c i 44.59 1493 59 3 157 3744 2174 59% 25 332625 2260 37%
c i 44.68 1493 59 3 164 3773 2199 59% 25 332625 2259 37%
c i 45.18 1493 60 3 179 3836 2253 58% 26 332625 2258 37%
c i 47.44 1493 61 3 236 4121 2495 56% 27 332625 2257 37%
c i 47.65 1493 60 3 236 4198 2559 55% 27 332625 2256 37%
c - 49.47 1488 61 4 258 4413 1990 54% 27 332157 2256 37%
c i 49.63 1488 61 4 258 4428 2004 54% 27 332157 2255 37%
c i 49.72 1488 61 4 258 4437 2012 54% 27 332157 2254 37%
c 
c  seconds    reductions  redundant   irredundant
c          MB     restarts       trail       variables
c            level   conflicts       glue         remaining
c 
c i 51.78 1488 59 4 296 4935 2429 52% 27 332157 2253 37%
c i 51.78 1488 59 4 296 4936 2429 52% 27 332157 2252 37%
c i 51.81 1488 59 4 296 4955 2445 52% 27 332157 2251 37%
c 2 52.35 1488 59 4 296 5000 3182 52% 27 332117 2244 36%
c p 57.24 1488 59 4 296 5000 5103 52% 27 332117 2225 36%
c d 57.55 1488 59 4 296 5000 4978 52% 27 332061 2224 36%
c # 59.59 1488 54 4 329 6007 5747 51% 27 332061 2224 36%
c - 62.73 1486 53 5 370 6697 2886 50% 27 332061 2224 36%
c } 63.59 1486 52 5 388 7006 3121 50% 27 332061 2224 36%
c [ 63.59 1486 24 5 388 7006 3121 49% 21 332061 2224 36%
c - 66.57 1363 31 6 390 9439 3491 49% 27 332061 2224 36%
c I 67.31 1363 32 6 390 10008 3949 49% 27 332061 2224 36%
c - 71.33 1488 39 7 392 12633 4094 49% 32 332061 2224 36%
c p 75.53 1488 40 7 393 15000 8608 48% 33 332061 2224 36%
c ] 75.73 1488 40 7 393 15007 8614 48% 33 332061 2224 36%
c { 75.73 1488 52 7 393 15007 8614 50% 27 332061 2224 36%
c B 75.89 1488 52 7 394 15009 8616 50% 27 332061 2224 36%
c - 78.53 1363 49 8 454 16284 4810 49% 26 332061 2224 36%
c s 86.44 1363 46 8 599 18772 6538 48% 26 329626 2224 36%
c v 93.01 1363 46 8 599 18772 6538 48% 26 329614 2224 36%
c 
c  seconds    reductions   redundant   irredundant
c          MB     restarts        trail       variables
c            level    conflicts       glue         remaining
c 
c t 93.15 1363 46 8 599 18772 6520 48% 26 329606 2224 36%
c e 94.35 1365 46 8 599 18772 6003 48% 26 327296 972 16%
c s 94.48 1365 46 8 599 18772 6003 48% 26 327069 972 16%
c - 104.55 1365 48 9 844 20395 5285 59% 27 327069 972 16%
c W 105.52 1365 47 9 859 21011 5806 61% 27 327069 972 16%
c - 113.03 1365 43 10 1022 24938 6247 64% 26 327069 972 16%
c F 116.54 1365 41 10 1028 28013 8444 64% 25 327069 972 16%
c - 125.37 1365 42 11 1268 29937 7007 64% 25 327069 972 16%
c 3 125.53 1365 41 11 1268 30006 7578 64% 25 327069 972 16%
c p 126.69 1365 41 11 1268 30006 8943 64% 25 327069 972 16%
c } 128.57 1365 41 11 1296 31009 9744 64% 25 327069 972 16%
c [ 128.57 1365 40 11 1296 31009 9744 113% 33 327069 972 16%
c - 132.68 1365 37 12 1298 35390 7962 98% 30 327069 972 16%
c B 133.29 1365 36 12 1299 36016 8424 96% 29 327069 972 16%
c - 137.09 1365 40 13 1302 41299 8589 88% 32 327069 972 16%
c W 141.17 1365 39 13 1303 45017 11277 85% 32 327069 972 16%
c - 142.75 1365 37 14 1304 47662 8958 83% 31 327069 972 16%
c p 145.69 1365 36 14 1304 50006 12782 82% 30 327069 972 16%
c s 147.34 1365 35 14 1304 52353 14329 81% 29 326740 972 16%
c v 153.19 1365 35 14 1304 52353 14329 81% 29 326728 972 16%
c 
c  seconds     reductions      redundant   irredundant
c           MB      restarts          trail       variables
c             level      conflicts        glue        remaining
c 
c t 153.35 1365 35 14 1304 52353 14326 81% 29 326728 972 16%
c e 154.43 1365 35 14 1304 52353 14326 81% 29 326724 968 16%
c s 154.60 1365 35 14 1304 52353 14326 81% 29 326487 968 16%
c - 157.61 1365 35 15 1305 54477 9505 80% 29 326487 968 16%
c O 158.07 1365 35 15 1305 55020 9901 80% 29 326487 968 16%
c ] 158.66 1365 34 15 1306 56130 10687 80% 29 326487 968 16%
c 1 158.66 1365 34 15 1306 56130 10687 80% 29 326487 968 16%
c 
c --- [ writing output ] -----------------------------------------------------
c 
c writing simplified CNF to DIMACS file 'simp/33.cubes1677.adj.simp1'
c * 158.66 1365 34 15 1306 56130 10687 80% 29 326487 968 16%
c opening file to write 'simp/33.cubes1677.adj.simp1'
c writing 'p cnf 6160 326487' header
c closing file 'simp/33.cubes1677.adj.simp1'
c after writing 140977002 bytes 134.4 MB
c wrote 326487 clauses in 1.16 seconds process time
c 
c --- [ writing extension ] --------------------------------------------------
c 
c writing extension stack to 'simp/33.cubes1677.adj.ext1'
c opening file to write 'simp/33.cubes1677.adj.ext1'
c closing file 'simp/33.cubes1677.adj.ext1'
c after writing 82772 bytes 0.1 MB
c wrote 3702 witnesses in 0.00 seconds process time
c 
c --- [ result ] -------------------------------------------------------------
c 
s SATISFIABLE
c 
c --- [ run-time profiling ] -------------------------------------------------
c 
c process time taken by individual solving procedures
c (percentage relative to process time for solving)
c 
c       110.96   79.81% search
c        75.92   54.60% unstable
c        32.02   23.03% stable
c        28.08   20.19% simplify
c        19.62   14.11% parse
c        12.63    9.08% vivify
c         9.25    6.65% probe
c         4.38    3.15% elim
c         1.71    1.23% walk
c         1.32    0.95% lucky
c         0.62    0.45% subsume
c         0.19    0.14% ternary
c   =================================
c       139.04   87.00% solve
c 
c last line shows process time for solving
c (percentage relative to total process time)
c 
c --- [ statistics ] ---------------------------------------------------------
c 
c chronological:             10323        18.39 %  of conflicts
c conflicts:                 56130       403.68    per second
c decisions:                162605      1169.44    per second
c eliminated:                 1256        20.39 %  of all variables
c fixed:                       784        12.73 %  of all variables
c learned:                   54922        97.85 %  per conflict
c learned_lits:           10438949       100.00 %  learned literals
c minimized:                     0         0.00 %  learned literals
c shrunken:                5367323        51.42 %  learned literals
c minishrunken:            1203628        11.53 %  learned literals
c propagations:            5702834         0.04 M  per second
c reduced:                   30767        54.81 %  per conflict
c rephased:                     10      5613.00    interval
c restarts:                   1306        42.98    interval
c stabilizing:                   3        62.58 %  of conflicts
c substituted:                   8         0.13 %  of all variables
c subsumed:                  16266         0.47 %  of all clauses
c strengthened:               9044         0.26 %  of all clauses
c ternary:                    2620         0.60 %  of resolved
c vivified:                     43         0.00 %  of all clauses
c walked:                        2     28065.00    interval
c weakened:                   2918         3.02    average size
c 
c seconds are measured in process time for solving
c 
c --- [ resources ] ----------------------------------------------------------
c 
c total process time since initialization:       159.83    seconds
c total real time since initialization:          161.84    seconds
c maximum resident set size of process:         1625.11    MB
c 
c --- [ shutting down ] ------------------------------------------------------
c 
c exit 10
WARNING! DIMACS header mismatch: wrong number of variables.
============================[ Problem Statistics ]=============================
|                                                                             |
|  Number of variables:          3498                                         |
|  Number of clauses:          326487                                         |
|  Parse time:                   1.82 s                                       |
|  Simplification time:          0.04 s                                       |
|                                                                             |
============================[ Search Statistics ]====================================================
| Conflicts |          ORIGINAL         |          LEARNT          | Num Sols |      SUBGRAPHS      |
|           |    Vars  Clauses Literals |    Limit  Clauses Lit/Cl |          | Canonical Noncanon. |
=====================================================================================================
|       100 |    3407   326487 30894699 |     2000      100    141 |        0 |        17         0 |
|       578 |    3407   326815 30901465 |     2000      578     52 |        0 |        67       328 |
|       807 |    3407   326819 30901604 |     2000      807     71 |        0 |        73       332 |
|      1153 |    3407   326828 30902133 |     2000     1153     85 |        0 |        76       341 |
|      1682 |    3407   326851 30902776 |     2000     1682     90 |        0 |       104       364 |
|      2456 |    3407   326866 30903285 |     3601     1457     58 |        0 |       148       379 |
|      3677 |    3407   326948 30905492 |     3601     2678     85 |        0 |       173       461 |
|      5550 |    3407   327113 30909997 |     5004     2754     65 |        0 |       248       626 |
|      8207 |    3407   327208 30912978 |     6304     2911     51 |        0 |       299       721 |
|     12625 |    3407   327782 30925771 |     7556     4181     51 |        0 |       510      1295 |
|     19765 |    3407   329156 30955809 |     8781     7546     56 |        0 |       794      2669 |
|     29245 |    3407   329987 30972246 |    11211     7656     52 |        0 |      1029      3500 |
|     43001 |    3407   330769 30988345 |    13606     9607     58 |        0 |      1175      4282 |
|     66552 |    3407   334859 31069468 |    17208    10960     51 |        0 |      2390      8372 |
|     97756 |    3407   336871 31110839 |    20808    14564     62 |        0 |      3219     10384 |
|    153364 |    3407   348690 31361859 |    25615    24979     50 |        0 |      5656     22203 |
|    225679 |    3407   355321 31490494 |    31618    27297     65 |        0 |      7251     28834 |
|    332543 |    3407   363659 31646949 |    38823    30366     68 |        0 |     10913     37172 |
|    503486 |    3407   386813 32022544 |    48410    29296     50 |        0 |     20963     60326 |
|    804419 |    3402   416502 32628812 |    61508    30927     41 |        0 |     44418    139576 |
|   1230049 |    3402   509607 34498830 |    76016    47465     46 |        0 |     62889    232681 |
|   2013405 |    3402   794175 40151510 |    97615    55020     38 |        0 |    104183    517249 |
|   3056984 |    3402  1089572 44985414 |   120415    68799     37 |        0 |    161825    812646 |
|   4326766 |    3402  1237080 47545868 |   143227    92193     51 |        0 |    218943    960154 |
|   6307718 |    3402  1534621 55047478 |   173225   103143     41 |        0 |    298870   1257695 |
|   9466756 |    3402  2168543 71198423 |   211613   193369     57 |        0 |    413879   1891617 |
|  14404309 |    3385  3039435 92242755 |   262021   170730     46 |        0 |    586742   3041495 |
=====================================================================================================
Number of solutions   : 0
Canonical subgraphs   : 776022         (23 /sec)
          order  3    : 1              (166667 /sec)
          order  4    : 1              (500000 /sec)
          order  5    : 1              (250000 /sec)
          order  6    : 1              (52632 /sec)
          order  7    : 1              (8333 /sec)
          order  8    : 2              (1362 /sec)
          order  9    : 7              (353 /sec)
          order 10    : 34             (119 /sec)
          order 11    : 264            (51 /sec)
          order 12    : 1365           (23 /sec)
          order 13    : 10389          (21 /sec)
          order 14    : 120777         (21 /sec)
          order 15    : 329484         (27 /sec)
          order 16    : 188359         (24 /sec)
          order 17    : 91834          (18 /sec)
          order 18    : 21499          (18 /sec)
          order 19    : 10167          (17 /sec)
          order 20    : 1320           (20 /sec)
          order 21    : 516            (27 /sec)
          order 22    : 0              (-nan /sec)
Noncanonical subgraphs: 5128959        (158 /sec)
          order  3    : 0              (-nan /sec)
          order  4    : 0              (-nan /sec)
          order  5    : 0              (-nan /sec)
          order  6    : 0              (-nan /sec)
          order  7    : 0              (-nan /sec)
          order  8    : 0              (-nan /sec)
          order  9    : 0              (-nan /sec)
          order 10    : 0              (-nan /sec)
          order 11    : 0              (-nan /sec)
          order 12    : 0              (-nan /sec)
          order 13    : 38068          (3052 /sec)
          order 14    : 213730         (1043 /sec)
          order 15    : 4652352        (153 /sec)
          order 16    : 155443         (179 /sec)
          order 17    : 68699          (76 /sec)
          order 18    : 13             (78 /sec)
          order 19    : 59             (552 /sec)
          order 20    : 16             (16427 /sec)
          order 21    : 1              (44 /sec)
Canonicity checking   : 33137.8 s
Noncanonicity checking: 32449.6 s
Total canonicity time : 65587.5 s
database reductions   : 260
restarts              : 31544
conflicts             : 20749302       (256 /sec)
decisions             : 29170089       (0.00 % random) (360 /sec)
propagations          : 1039002059     (12831 /sec)
conflict literals     : 1941069332     (55.24 % deleted)
actual reward         : 0.233626
Memory used           : 1756.00 MB
CPU time              : 80974.4 s

UNSATISFIABLE
